unknown
(model
; cardinality of BoundSet is 2
(declare-sort BoundSet 0)
; rep: @uc_BoundSet_0
; rep: @uc_BoundSet_1
; cardinality of UnboundSet is 1
(declare-sort UnboundSet 0)
(declare-fun groundTerm_3 () UnboundSet)
(define-fun IsUnmoved ((BOUND_VARIABLE_425 BoundSet)) Bool true)
(define-fun IsAtHome ((BOUND_VARIABLE_425 BoundSet)) Bool true)
(define-fun IsAbroad ((BOUND_VARIABLE_425 BoundSet)) Bool false)
(define-fun IsBackfiring ((BOUND_VARIABLE_425 BoundSet)) Bool false)
(define-fun IsConfirming ((BOUND_VARIABLE_425 BoundSet)) Bool false)
)
sat
(model
; cardinality of BoundSet is 1
(declare-sort BoundSet 0)
; rep: @uc_BoundSet_0
; cardinality of UnboundSet is 1
(declare-sort UnboundSet 0)
(declare-fun groundTerm_5 () UnboundSet)
(define-fun IsUnmoved ((BOUND_VARIABLE_453 BoundSet)) Bool true)
(define-fun IsAtHome ((BOUND_VARIABLE_453 BoundSet)) Bool true)
(define-fun IsAbroad ((BOUND_VARIABLE_453 BoundSet)) Bool false)
(define-fun IsBackfiring ((BOUND_VARIABLE_453 BoundSet)) Bool false)
(define-fun IsConfirming ((BOUND_VARIABLE_453 BoundSet)) Bool false)
)
